(set-logic QF_SLIA)
(declare-fun var0 () String)
(assert (not (str.in_re var0 (re.++ ((_ re.loop 3 707) (re.++ (re.union (str.to_re "Z") (re.union (str.to_re "5V") (re.union (str.to_re "h(") (str.to_re "]B;")))) (re.++ (re.union (str.to_re "=_") (re.union (str.to_re "w") (re.union (str.to_re "rM_") (str.to_re "AIp")))) (re.++ (re.union (str.to_re "a3") (re.union (str.to_re "&") (re.union (str.to_re "`n>") (str.to_re "a")))) (re.union (str.to_re "\\") (re.union (str.to_re "C<") (re.union (str.to_re "~s") (str.to_re "h")))))))) (re.++ ((_ re.loop 13 781) (re.++ (re.union (str.to_re "\u0022~") (re.union (str.to_re "c;") (re.union (str.to_re "Vt") (str.to_re "'?")))) (re.++ (re.union (str.to_re "t!Q") (re.union (str.to_re ">r#") (re.union (str.to_re "+V3") (str.to_re "E:")))) (re.++ (re.union (str.to_re "D`") (re.union (str.to_re "$Q") (re.union (str.to_re "Y_") (str.to_re "Y")))) (re.union (str.to_re "GK") (re.union (str.to_re "9") (re.union (str.to_re "E") (str.to_re "3F")))))))) (re.++ ((_ re.loop 1 774) (re.++ (re.union (str.to_re "7n^") (re.union (str.to_re "K") (re.union (str.to_re "Q\u0022y") (str.to_re "M`G")))) (re.++ (re.union (str.to_re ">Y") (re.union (str.to_re "OJ!") (re.union (str.to_re "qb") (str.to_re "'Kn")))) (re.++ (re.union (str.to_re "E") (re.union (str.to_re "qy&") (re.union (str.to_re "$C") (str.to_re "+")))) (re.union (str.to_re "D") (re.union (str.to_re ",R") (re.union (str.to_re "r") (str.to_re ">t")))))))) ((_ re.loop 20 536) (re.++ (re.union (str.to_re "t}S") (re.union (str.to_re "+`/") (re.union (str.to_re "\\I") (str.to_re "'")))) (re.++ (re.union (str.to_re "p") (re.union (str.to_re "@") (re.union (str.to_re "Ot") (str.to_re "~")))) (re.++ (re.union (str.to_re "hy") (re.union (str.to_re "\u0022|") (re.union (str.to_re "H&+") (str.to_re "[U")))) (re.union (str.to_re ":=") (re.union (str.to_re "&G%") (re.union (str.to_re "rO") (str.to_re "h>"))))))))))))))
(assert (not (str.in_re var0 (re.++ ((_ re.loop 14 239) (re.++ (re.union (str.to_re "0") (re.union (str.to_re "M") (re.union (str.to_re "3I}") (str.to_re "W")))) (re.++ (re.union (str.to_re "\u0022)") (re.union (str.to_re "-:p") (re.union (str.to_re "`*x") (str.to_re "p1")))) (re.++ (re.union (str.to_re "?NW") (re.union (str.to_re "<a") (re.union (str.to_re "drJ") (str.to_re "{@")))) (re.union (str.to_re "V") (re.union (str.to_re "bS") (re.union (str.to_re "eb") (str.to_re "'.")))))))) (re.++ ((_ re.loop 7 114) (re.++ (re.union (str.to_re "iN") (re.union (str.to_re "rp") (re.union (str.to_re "cXp") (str.to_re "f")))) (re.++ (re.union (str.to_re "d") (re.union (str.to_re "Tc") (re.union (str.to_re "|_") (str.to_re "NM")))) (re.++ (re.union (str.to_re "d)D") (re.union (str.to_re ".") (re.union (str.to_re "!\\e") (str.to_re "m#")))) (re.union (str.to_re "2") (re.union (str.to_re ":-f") (re.union (str.to_re "~ND") (str.to_re "Z/W")))))))) (re.++ ((_ re.loop 12 689) (re.++ (re.union (str.to_re "W") (re.union (str.to_re ";.i") (re.union (str.to_re "ftu") (str.to_re "{?u")))) (re.++ (re.union (str.to_re "h") (re.union (str.to_re "=") (re.union (str.to_re "/7") (str.to_re "}r")))) (re.++ (re.union (str.to_re "#") (re.union (str.to_re ":g") (re.union (str.to_re "0v$") (str.to_re "}\u0022t")))) (re.union (str.to_re ";6") (re.union (str.to_re "=!") (re.union (str.to_re "$P") (str.to_re "f")))))))) ((_ re.loop 5 425) (re.++ (re.union (str.to_re "!") (re.union (str.to_re "3J") (re.union (str.to_re "vZ") (str.to_re "Y")))) (re.++ (re.union (str.to_re "o") (re.union (str.to_re "@S") (re.union (str.to_re "Ta/") (str.to_re "t\u0022")))) (re.++ (re.union (str.to_re "t,") (re.union (str.to_re "p") (re.union (str.to_re "RZ") (str.to_re ",")))) (re.union (str.to_re "'j\\") (re.union (str.to_re "D8") (re.union (str.to_re "[A") (str.to_re "t(-"))))))))))))))
(assert (not (str.in_re var0 (re.++ (re.* re.allchar) (re.++ (re.union (str.to_re "<") (re.union (str.to_re ">") (re.union (str.to_re "'") (re.union (str.to_re "\u0022") (str.to_re "&"))))) (re.* re.allchar))))))
(assert (<= 50 (str.len var0)))
(check-sat)
(get-model)
